30
2 0 11
3 1 4
4 0 1
4 3 9
5 0 5
5 1 9
5 2 5
5 4 8
6 1 3
6 4 5
7 0 5
7 2 3
7 4 6
7 6 6
8 1 8
8 2 8
8 7 6
9 4 5
9 5 4
9 6 5
9 7 5
9 8 10
10 1 1
10 2 1
10 7 10
10 9 3
11 1 9
11 4 2
11 5 6
11 10 5
12 0 2
12 2 5
12 6 9
12 9 9
12 10 4
12 11 2
13 3 2
13 4 3
13 5 7
13 8 3
13 9 11
14 0 11
14 2 4
14 3 3
14 5 9
14 7 1
14 8 10
14 11 8
14 13 10
15 4 4
15 6 9
15 7 11
15 8 11
15 9 7
15 10 4
15 11 6
15 12 2
15 14 2
16 0 2
16 1 6
16 3 4
16 5 9
16 8 8
16 9 4
16 11 11
16 12 1
16 14 10
17 0 2
17 5 7
17 7 1
17 8 11
17 9 11
17 10 4
17 11 6
18 0 1
18 5 2
18 6 9
18 8 3
18 9 2
18 10 9
18 11 10
18 16 2
18 17 11
19 0 7
19 2 10
19 5 8
19 7 9
19 9 11
19 12 1
19 15 3
20 0 6
20 1 1
20 2 5
20 7 10
20 8 8
20 9 7
20 14 9
20 15 11
20 16 5
20 17 10
21 1 11
21 4 8
21 5 5
21 6 6
21 7 11
21 9 2
21 11 2
21 12 5
21 13 8
21 15 7
21 20 2
22 2 1
22 4 2
22 7 3
22 9 4
22 10 3
22 15 11
22 18 8
22 19 6
23 0 2
23 5 7
23 6 2
23 8 4
23 10 2
23 11 8
23 14 6
23 17 5
23 18 8
23 20 3
24 2 6
24 3 6
24 6 1
24 8 10
24 11 11
24 12 5
24 13 5
24 18 2
24 19 9
24 21 3
24 23 10
25 0 3
25 4 9
25 6 10
25 7 1
25 9 11
25 10 11
25 13 6
25 14 9
25 15 2
25 16 10
25 17 6
25 18 10
25 19 1
25 20 10
25 21 8
25 22 5
25 24 10
26 3 3
26 4 6
26 5 8
26 8 4
26 10 6
26 11 5
26 13 11
26 15 9
26 16 7
26 20 6
26 22 6
26 23 7
26 24 6
27 1 8
27 2 1
27 5 1
27 6 3
27 8 10
27 10 6
27 14 5
27 18 8
27 22 10
27 23 10
28 0 6
28 3 9
28 4 8
28 5 2
28 6 4
28 9 6
28 12 8
28 14 9
28 15 8
28 16 1
28 25 11
28 27 3
29 0 5
29 1 10
29 4 10
29 5 10
29 8 11
29 9 8
29 11 1
29 13 8
29 15 3
29 17 11
29 19 9
29 22 6
29 23 4
29 25 11
29 27 10
29 28 8
